(set-info :smt-lib-version 2.6)
(set-logic QF_S)
(set-info :source |
Generated by: Oliver Markgraf
Generated on: 2025-04-03
Application: Evaluation of String Solvers on PCP
Target solver: cvc5,Z3,OSTRICH
Time limit: 60.0
Benchmarks encoding PCP[3,4] that were considered hard to solve by the paper
'Creating Difficult Instances of the Post Correspondence Problem'. Most were solved later with different
techniques like Parikh Automata and Model Checking but String Solvers have not been tested.
This benchmark is sat, with the solution:
(= replace "23322323424223424423424242334424423423422343444244244242443344233442344234342234342434244424244423444342344342433442434423234342343422342444244424244434434234434344243443423434424434233442234342424442344342434423432332423422323423424424223424424444234242444233433424423443422342342334424344242442442234342343423442334424244424442434223434234434434234424244424343442434234434234434234424344243442434234342343423442444244424344344342343434424443443434434")
Publication: Creating Difficult Instances of the Post Correspondence Problem, Further Tackling Post Correspondence Problem and
Proof Generation
|)
(set-info :license "https://creativecommons.org/licenses/by/4.0/")
(set-info :category "industrial")
(set-info :status sat)

(declare-fun TopStr () String)
(declare-fun BottomStr () String)

(declare-fun Top_0 () String)
(declare-fun Bottom_0 () String)
(assert (= Top_0 "1001"))
(assert (= Bottom_0 "1"))
(declare-fun Top_1 () String)
(declare-fun Bottom_1 () String)
(assert (= Top_1 "10"))
(assert (= Bottom_1 "0"))
(declare-fun Top_2 () String)
(declare-fun Bottom_2 () String)
(assert (= Top_2 "0"))
(assert (= Bottom_2 "100"))
(declare-fun replace () String)
(assert (str.in_re replace (re.+ (re.union (str.to_re "2") (str.to_re "3") (str.to_re "4")))))

(declare-fun x () String)
(declare-fun y () String)
(declare-fun x_0 () String)
(declare-fun y_0 () String)
(declare-fun x_1 () String)
(declare-fun y_1 () String)
(declare-fun x_2 () String)
(declare-fun y_2 () String)
(assert (= x_1 (str.replace_all x_0 "2" Top_0)))
(assert (= x_2 (str.replace_all x_1 "3" Top_1)))
(assert (= x (str.replace_all x_2 "4" Top_2)))
(assert (= y_1 (str.replace_all y_0 "2" Bottom_0)))
(assert (= y_2 (str.replace_all y_1 "3" Bottom_1)))
(assert (= y (str.replace_all y_2 "4" Bottom_2)))
(assert (= x_0 replace))
(assert (= y_0 replace))

(assert (= x y))
(check-sat)
(exit)
